NAME : eil76.out.tour
COMMENT : Tour for eil76.tsp (Length 611)
TYPE : TOUR
DIMENSION : 76
TOUR_SECTION
10
52
34
6
25
11
39
16
50
5
67
74
75
3
66
33
51
26
44
28
29
1
27
61
72
32
62
15
48
23
22
55
0
42
40
41
63
21
60
73
20
68
35
46
47
4
36
70
59
69
19
14
56
12
53
45
7
18
58
13
65
30
54
24
17
49
2
43
31
8
38
71
57
9
37
64
10
-1
EOF